(set-logic HORN)
(set-info :source |
  Benchmark: test_safe_2019/adt/isort_geq.ml
  Generated by MoCHi
|)
(set-info :status unknown)
(declare-fun |fail_72[632:0]| ( Int) Bool)
(declare-fun |length[606:2][627:0]| ( Int  Int) Bool)
(declare-fun |length[614:2][617:0]| ( Int  Int) Bool)
(declare-fun |length[614:0]| ( Int) Bool)
(declare-fun |length[606:0]| ( Int) Bool)
(declare-fun |length[581:2][602:0]| ( Int  Int) Bool)
(declare-fun |length[589:2][592:0]| ( Int  Int) Bool)
(declare-fun |length[589:0]| ( Int) Bool)
(declare-fun |length[581:0]| ( Int) Bool)
(declare-fun |insertsort[379:2][577:0]| ( Int  Int) Bool)
(declare-fun |insert[505:3][567:0]| ( Int  Int  Int) Bool)
(declare-fun |insert[505:2][513:1][548:0]| ( Int  Int  Int  Int) Bool)
(declare-fun |insertsort[418:2][501:1][517:1][544:0]| ( Int  Int  Int  Int) Bool)
(declare-fun |insert[488:3][491:1][527:1][534:0]| ( Int  Int  Int  Int  Int) Bool)
(declare-fun |insert[488:3][491:1][527:0]| ( Int  Int  Int  Int) Bool)
(declare-fun |insertsort[418:2][501:1][517:0]| ( Int  Int  Int) Bool)
(declare-fun |insert[505:2][513:0]| ( Int  Int  Int) Bool)
(declare-fun |insert[505:1]| ( Int  Int) Bool)
(declare-fun |insertsort[418:2][501:0]| ( Int  Int) Bool)
(declare-fun |insert[488:3][491:0]| ( Int  Int  Int) Bool)
(declare-fun |insert[488:1]| ( Int  Int) Bool)
(declare-fun |insertsort[481:2][484:0]| ( Int  Int) Bool)
(declare-fun |insertsort[481:0]| ( Int) Bool)
(declare-fun |insertsort[418:1][426:1][473:0]| ( Int  Int  Int) Bool)
(declare-fun |insertsort[379:1][438:1][461:0]| ( Int  Int  Int) Bool)
(declare-fun |make_list[358:1][375:1][442:1][457:0]| ( Int  Int  Int  Int) Bool)
(declare-fun |make_list[358:1][375:1][442:0]| ( Int  Int  Int) Bool)
(declare-fun |insertsort[379:1][438:0]| ( Int  Int) Bool)
(declare-fun |insertsort[418:1][426:0]| ( Int  Int) Bool)
(declare-fun |insertsort[418:0]| ( Int) Bool)
(declare-fun |insertsort[379:1][387:1][410:0]| ( Int  Int  Int) Bool)
(declare-fun |make_list[358:1][375:1][391:1][406:0]| ( Int  Int  Int  Int) Bool)
(declare-fun |make_list[358:1][375:1][391:0]| ( Int  Int  Int) Bool)
(declare-fun |insertsort[379:1][387:0]| ( Int  Int) Bool)
(declare-fun |insertsort[379:0]| ( Int) Bool)
(declare-fun |make_list[358:1][375:0]| ( Int  Int) Bool)
(declare-fun |make_list[361:1][364:0]| ( Int  Int) Bool)
(declare-fun |make_list[361:0]| ( Int) Bool)
(declare-fun |make_list[358:0]| ( Int) Bool)
(assert (not (exists ((x0 Int)) (|fail_72[632:0]| x0))))
(assert (forall ((x0 Int)(x3 Int)(x5 Int)(x4 Int)(x2 Int)(x1 Int)) (=> (and (|length[606:2][627:0]| x4 x5) (and (|length[581:2][602:0]| x2 x3) (and (|insertsort[379:2][577:0]| x4 x2) (and (|make_list[358:1][375:0]| x1 x4) (<= (+ 1 x3) x5))))) (|fail_72[632:0]| x0))))
(assert (forall ((x1 Int)(x2 Int)(var1598 Int)(var1599 Int)) (=> (and (|length[614:2][617:0]| var1598 var1599) (and (|length[606:0]| x1) (and (<= 1 x1) (and (= (+ 1 var1598) x1) (= x2 (+ 1 var1599)))))) (|length[606:2][627:0]| x1 x2))))
(assert (forall ((x1 Int)(x0 Int)) (=> (and (|length[614:0]| x1) (and (= x0 0) (<= x1 0))) (|length[614:2][617:0]| x1 x0))))
(assert (forall ((x1 Int)(x0 Int)) (=> (and (|length[606:0]| x0) (and (= (+ 1 x1) x0) (>= x0 1))) (|length[614:0]| x1))))
(assert (forall ((x2 Int)(x1 Int)(x3 Int)(x0 Int)) (=> (and (|length[581:2][602:0]| x1 x3) (and (|insertsort[379:2][577:0]| x2 x1) (|make_list[358:1][375:0]| x0 x2))) (|length[606:0]| x2))))
(assert (forall ((x1 Int)(x2 Int)(var1600 Int)(var1601 Int)) (=> (and (|length[589:2][592:0]| var1600 var1601) (and (|length[581:0]| x1) (and (<= 1 x1) (and (= (+ 1 var1600) x1) (= x2 (+ 1 var1601)))))) (|length[581:2][602:0]| x1 x2))))
(assert (forall ((x1 Int)(x0 Int)) (=> (and (|length[589:0]| x1) (and (= x0 0) (<= x1 0))) (|length[589:2][592:0]| x1 x0))))
(assert (forall ((x1 Int)(x0 Int)) (=> (and (|length[581:0]| x0) (and (= (+ 1 x1) x0) (>= x0 1))) (|length[589:0]| x1))))
(assert (forall ((x2 Int)(x1 Int)(x0 Int)) (=> (and (|insertsort[379:2][577:0]| x1 x2) (|make_list[358:1][375:0]| x0 x1)) (|length[581:0]| x2))))
(assert (forall ((x1 Int)(x2 Int)(var1602 Int)(var1604 Int)(var1603 Int)) (=> (and (|insert[505:3][567:0]| var1604 var1603 x2) (and (|insertsort[418:2][501:0]| var1602 var1603) (and (|insertsort[379:1][387:1][410:0]| x1 0 var1604) (and (|insertsort[379:0]| x1) (and (<= 1 x1) (= (+ 1 var1602) x1)))))) (|insertsort[379:2][577:0]| x1 x2))))
(assert (forall ((x1 Int)(x2 Int)(x3 Int)(var1605 Int)) (=> (and (|insert[505:2][513:1][548:0]| x1 x2 0 var1605) (and (|insert[505:1]| x1 x2) (and (<= 1 x2) (and (<= (+ 1 x1) var1605) (= (+ 1 x2) x3))))) (|insert[505:3][567:0]| x1 x2 x3))))
(assert (forall ((x4 Int)(x5 Int)(x2 Int)(x3 Int)(x0 Int)(x1 Int)) (=> (and (|insert[505:1]| x4 x5) (and (|insertsort[418:2][501:1][517:1][544:0]| x0 x5 x2 x3) (and (|insertsort[418:2][501:0]| x0 x5) (and (|insertsort[379:1][387:1][410:0]| x1 0 x4) (and (|insertsort[379:0]| x1) (and (= (+ 1 x0) x1) (>= x1 1))))))) (|insert[505:2][513:1][548:0]| x4 x5 x2 x3))))
(assert (forall ((x3 Int)(x4 Int)(x1 Int)(x2 Int)(var1610 Int)(var1609 Int)(var1611 Int)) (=> (and (|insertsort[418:1][426:1][473:0]| x3 0 var1609) (and (|insert[488:3][491:0]| var1609 var1611 x4) (and (|insert[488:3][491:1][527:1][534:0]| var1609 var1611 x4 x1 x2) (and (|insertsort[481:2][484:0]| var1610 var1611) (and (|insertsort[418:2][501:0]| x3 x4) (and (|insertsort[418:0]| x3) (and (= (+ 1 var1610) x3) (<= 1 x3)))))))) (|insertsort[418:2][501:1][517:1][544:0]| x3 x4 x1 x2))))
(assert (forall ((x2 Int)(x3 Int)(x4 Int)(x0 Int)(x1 Int)) (=> (and (|insert[488:3][491:0]| x2 x3 x4) (and (|insert[488:1]| x2 x3) (and (|insert[488:3][491:1][527:0]| x2 x3 1 x0) (and (= x4 1) (and (= x0 0) (and (<= x3 0) (= x1 x2))))))) (|insert[488:3][491:1][527:1][534:0]| x2 x3 x4 x0 x1))))
(assert (forall ((x4 Int)(x5 Int)(x2 Int)(x3 Int)(x0 Int)(x1 Int)) (=> (and (|insert[488:1]| x4 x5) (and (|insertsort[481:2][484:0]| x0 x5) (and (|insertsort[418:1][426:1][473:0]| x1 0 x4) (and (|insertsort[418:2][501:1][517:0]| x1 x2 x3) (and (|insertsort[418:0]| x1) (and (= (+ 1 x0) x1) (>= x1 1))))))) (|insert[488:3][491:1][527:0]| x4 x5 x2 x3))))
(assert (forall ((x4 Int)(x2 Int)(x3 Int)(x1 Int)(x0 Int)) (=> (and (|insertsort[418:0]| x4) (and (|insert[505:2][513:0]| x0 x2 x3) (and (|insertsort[418:2][501:0]| x4 x2) (and (|insertsort[379:1][387:1][410:0]| x1 0 x0) (and (|insertsort[379:0]| x1) (and (= (+ 1 x4) x1) (>= x1 1))))))) (|insertsort[418:2][501:1][517:0]| x4 x2 x3))))
(assert (forall ((x1 Int)(x2 Int)(x3 Int)) (=> (and (|insert[505:1]| x1 x2) (and (= x3 0) (<= 1 x2))) (|insert[505:2][513:0]| x1 x2 x3))))
(assert (forall ((x0 Int)(x3 Int)(x1 Int)(x2 Int)) (=> (and (|insertsort[418:2][501:0]| x1 x3) (and (|insertsort[379:1][387:1][410:0]| x2 0 x0) (and (|insertsort[379:0]| x2) (and (= (+ 1 x1) x2) (>= x2 1))))) (|insert[505:1]| x0 x3))))
(assert (forall ((x1 Int)(x2 Int)(var1612 Int)(var1614 Int)(var1613 Int)) (=> (and (|insert[488:3][491:0]| var1614 var1613 x2) (and (|insertsort[481:2][484:0]| var1612 var1613) (and (|insertsort[418:1][426:1][473:0]| x1 0 var1614) (and (|insertsort[418:0]| x1) (and (<= 1 x1) (= (+ 1 var1612) x1)))))) (|insertsort[418:2][501:0]| x1 x2))))
(assert (forall ((x1 Int)(x2 Int)(x0 Int)) (=> (and (|insert[488:1]| x1 x2) (and (= x0 1) (<= x2 0))) (|insert[488:3][491:0]| x1 x2 x0))))
(assert (forall ((x0 Int)(x3 Int)(x1 Int)(x2 Int)) (=> (and (|insertsort[481:2][484:0]| x1 x3) (and (|insertsort[418:1][426:1][473:0]| x2 0 x0) (and (|insertsort[418:0]| x2) (and (= (+ 1 x1) x2) (>= x2 1))))) (|insert[488:1]| x0 x3))))
(assert (forall ((x1 Int)(x0 Int)) (=> (and (|insertsort[481:0]| x1) (and (= x0 0) (<= x1 0))) (|insertsort[481:2][484:0]| x1 x0))))
(assert (forall ((x2 Int)(x1 Int)(x0 Int)) (=> (and (|insertsort[418:1][426:1][473:0]| x1 0 x0) (and (|insertsort[418:0]| x1) (and (= (+ 1 x2) x1) (>= x1 1)))) (|insertsort[481:0]| x2))))
(assert (forall ((x4 Int)(x2 Int)(x3 Int)(var1616 Int)(var1615 Int)(x1 Int)(x0 Int)) (=> (and (|insertsort[418:0]| x4) (and (|insertsort[418:1][426:0]| var1615 x2) (and (|insertsort[379:1][438:1][461:0]| x1 var1616 x3) (and (|insertsort[379:1][387:1][410:0]| x1 0 x0) (and (|insertsort[379:0]| x1) (and (= var1616 (+ 1 x2)) (and (= (+ 1 var1615) x1) (and (= (+ 1 x4) x1) (>= x1 1))))))))) (|insertsort[418:1][426:1][473:0]| x4 x2 x3))))
(assert (forall ((x3 Int)(x1 Int)(x2 Int)(x0 Int)) (=> (and (|insertsort[379:0]| x3) (and (|make_list[358:1][375:1][442:1][457:0]| x0 x3 x1 x2) (|make_list[358:1][375:0]| x0 x3))) (|insertsort[379:1][438:1][461:0]| x3 x1 x2))))
(assert (forall ((x2 Int)(x3 Int)(x0 Int)(x1 Int)(var1619 Int)(var1621 Int)(var1620 Int)) (=> (and (|make_list[358:1][375:1][442:0]| x2 var1619 x0) (and (|make_list[361:1][364:0]| var1620 var1621) (and (|make_list[358:1][375:0]| x2 x3) (and (|make_list[358:0]| x2) (and (= var1619 (+ 1 var1621)) (and (= x3 (+ 1 var1621)) (and (= (+ 1 var1620) x2) (and (= x0 0) (not (= x2 0)))))))))) (|make_list[358:1][375:1][442:1][457:0]| x2 x3 x0 x1))))
(assert (forall ((x2 Int)(x0 Int)(x1 Int)) (=> (and (|make_list[358:0]| x2) (and (|insertsort[379:1][438:0]| x0 x1) (|make_list[358:1][375:0]| x2 x0))) (|make_list[358:1][375:1][442:0]| x2 x0 x1))))
(assert (forall ((x1 Int)(x2 Int)(var1622 Int)(var1623 Int)(var1624 Int)) (=> (and (|insertsort[418:1][426:0]| var1622 var1623) (and (|insertsort[379:1][387:1][410:0]| x1 0 var1624) (and (|insertsort[379:0]| x1) (and (<= 1 x1) (and (= (+ 1 var1622) x1) (= x2 (+ 1 var1623))))))) (|insertsort[379:1][438:0]| x1 x2))))
(assert (forall ((x1 Int)(x2 Int)) (=> (and (|insertsort[418:0]| x1) (and (= x2 0) (<= 1 x1))) (|insertsort[418:1][426:0]| x1 x2))))
(assert (forall ((x2 Int)(x1 Int)(x0 Int)) (=> (and (|insertsort[379:1][387:1][410:0]| x1 0 x0) (and (|insertsort[379:0]| x1) (and (= (+ 1 x2) x1) (>= x1 1)))) (|insertsort[418:0]| x2))))
(assert (forall ((x3 Int)(x1 Int)(x2 Int)(x0 Int)) (=> (and (|insertsort[379:0]| x3) (and (|make_list[358:1][375:1][391:1][406:0]| x0 x3 x1 x2) (|make_list[358:1][375:0]| x0 x3))) (|insertsort[379:1][387:1][410:0]| x3 x1 x2))))
(assert (forall ((x2 Int)(x3 Int)(x0 Int)(x1 Int)(var1627 Int)(var1629 Int)(var1628 Int)) (=> (and (|make_list[358:1][375:1][391:0]| x2 var1627 x0) (and (|make_list[361:1][364:0]| var1628 var1629) (and (|make_list[358:1][375:0]| x2 x3) (and (|make_list[358:0]| x2) (and (= var1627 (+ 1 var1629)) (and (= x3 (+ 1 var1629)) (and (= (+ 1 var1628) x2) (and (= x0 0) (not (= x2 0)))))))))) (|make_list[358:1][375:1][391:1][406:0]| x2 x3 x0 x1))))
(assert (forall ((x2 Int)(x0 Int)(x1 Int)) (=> (and (|make_list[358:0]| x2) (and (|insertsort[379:1][387:0]| x0 x1) (|make_list[358:1][375:0]| x2 x0))) (|make_list[358:1][375:1][391:0]| x2 x0 x1))))
(assert (forall ((x1 Int)(x2 Int)) (=> (and (|insertsort[379:0]| x1) (and (= x2 0) (<= 1 x1))) (|insertsort[379:1][387:0]| x1 x2))))
(assert (forall ((x1 Int)(x0 Int)) (=> (|make_list[358:1][375:0]| x0 x1) (|insertsort[379:0]| x1))))
(assert (forall ((x0 Int)(x1 Int)(var1630 Int)(var1631 Int)) (=> (and (|make_list[361:1][364:0]| var1630 var1631) (and (|make_list[358:0]| x0) (and (= (+ 1 var1630) x0) (and (= x1 (+ 1 var1631)) (not (= x0 0)))))) (|make_list[358:1][375:0]| x0 x1))))
(assert (forall ((x1 Int)(x0 Int)) (=> (and (|make_list[361:0]| x1) (and (= x0 0) (= x1 0))) (|make_list[361:1][364:0]| x1 x0))))
(assert (forall ((x0 Int)(x1 Int)) (=> (and (|make_list[358:0]| x1) (and (= (+ 1 x0) x1) (not (= x1 0)))) (|make_list[361:0]| x0))))
(assert (forall ((x0 Int)) (|make_list[358:0]| x0)))
(check-sat)
(get-model)
(exit)
